\ENCODING=ISO-8859-1
\Problem name: IloCplex

Maximize
 obj: 1498 vnp1 - 24 (π,ρ)0↑e2 - 44 (π,ρ)1↑e4 + 1000 vnp2
      - 54 (π,ρ)2↑e6 + 1070 vnp3 - 83 (π,ρ)3↑e9
      - 107 (π,ρ)4↑e9 - 115 (π,ρ)5↑e9
      - 235 (π,ρ)6↑e9 - 248 (π,ρ)7↑e9
      - 261 (π,ρ)8↑e9 - 263 (π,ρ)9↑e9
      - 160 (π,ρ)10↑e9 - 166 (π,ρ)11↑e9
      - 175 (π,ρ)12↑e9 - 180 (π,ρ)13↑e9
      - 173 (π,ρ)14↑e9 - 193 (π,ρ)15↑e9
      - 218 (π,ρ)16↑e9 - 220 (π,ρ)17↑e9
      - 176 (π,ρ)18↑e11 - 192 (π,ρ)19↑e11
      - 232 (π,ρ)20↑e11 - 243 (π,ρ)21↑e11
      - 260 (π,ρ)22↑e11 - 266 (π,ρ)23↑e11
      - 211 (π,ρ)24↑e11 - 220 (π,ρ)25↑e11
      - 225 (π,ρ)26↑e11 - 248 (π,ρ)27↑e11
      - 271 (π,ρ)28↑e11 - 280 (π,ρ)29↑e11 + 871 vnp4
      - 88 (π,ρ)30↑e12 - 156 (π,ρ)31↑e13
      - 164 (π,ρ)32↑e13 - 174 (π,ρ)33↑e13
      - 176 (π,ρ)34↑e13 - 68 (π,ρ)35↑e13
      - 96 (π,ρ)36↑e13 - 88 (π,ρ)37↑e13
      - 111 (π,ρ)38↑e13 - 120 (π,ρ)39↑e13
      - 219 (π,ρ)40↑e13 - 227 (π,ρ)41↑e13
      - 238 (π,ρ)42↑e13 - 32 (π,ρ)43↑e14
      - 49 (π,ρ)44↑e15 - 51 (π,ρ)45↑e15
      - 52 (π,ρ)46↑e15 - 53 (π,ρ)47↑e15
      - 53 (π,ρ)48↑e15 - 57 (π,ρ)49↑e15
      - 59 (π,ρ)50↑e15 - 60 (π,ρ)51↑e15 + 598 vnp5
      - 21 (π,ρ)52↑e16 - 21 (π,ρ)53↑e16
      - 21 (π,ρ)54↑e16 - 21 (π,ρ)55↑e16
      - 23 (π,ρ)56↑e16 - 25 (π,ρ)57↑e16
      - 25 (π,ρ)58↑e16 - 32 (π,ρ)59↑e16
      - 43 (π,ρ)60↑e16 - 45 (π,ρ)61↑e16
      - 52 (π,ρ)62↑e16 - 36 (π,ρ)63↑e16
      - 36 (π,ρ)64↑e16 - 143 (π,ρ)65↑e17
      - 144 (π,ρ)66↑e17 - 151 (π,ρ)67↑e17
      - 152 (π,ρ)68↑e17 - 144 (π,ρ)69↑e17
      - 172 (π,ρ)70↑e17 - 140 (π,ρ)71↑e17
      - 148 (π,ρ)72↑e17 - 160 (π,ρ)73↑e17
      - 163 (π,ρ)74↑e17 - 264 (π,ρ)75↑e17
      - 266 (π,ρ)76↑e17 - 270 (π,ρ)77↑e17
      - 272 (π,ρ)78↑e17 + 1109 vnp6
Subject To
 _EmbdConstr_vnp1e1#0:   vnp1  = 0
 _EmbdConstr_vnp1e2#1:   vnp1 - (π,ρ)0↑e2  = 0
 _EmbdConstr_vnp1e3#2:   vnp1  = 0
 _EmbdConstr_vnp1e4#3:   vnp1 - (π,ρ)1↑e4  = 0
 _EmbdConstr_vnp2e5#4:   vnp2  = 0
 _EmbdConstr_vnp2e6#5:   vnp2 - (π,ρ)2↑e6  = 0
 _EmbdConstr_vnp2e7#6:   vnp2  = 0
 _EmbdConstr_vnp2e8#7:   vnp2  = 0
 _EmbdConstr_vnp3e9#8:   vnp3 - (π,ρ)3↑e9 - (π,ρ)4↑e9
                         - (π,ρ)5↑e9 - (π,ρ)6↑e9
                         - (π,ρ)7↑e9 - (π,ρ)8↑e9
                         - (π,ρ)9↑e9 - (π,ρ)10↑e9
                         - (π,ρ)11↑e9 - (π,ρ)12↑e9
                         - (π,ρ)13↑e9 - (π,ρ)14↑e9
                         - (π,ρ)15↑e9 - (π,ρ)16↑e9
                         - (π,ρ)17↑e9  = 0
 _EmbdConstr_vnp3e10#9:  vnp3  = 0
 _EmbdConstr_vnp3e11#10: vnp3 - (π,ρ)18↑e11 - (π,ρ)19↑e11
                         - (π,ρ)20↑e11 - (π,ρ)21↑e11
                         - (π,ρ)22↑e11 - (π,ρ)23↑e11
                         - (π,ρ)24↑e11 - (π,ρ)25↑e11
                         - (π,ρ)26↑e11 - (π,ρ)27↑e11
                         - (π,ρ)28↑e11 - (π,ρ)29↑e11  = 0
 _EmbdConstr_vnp4e12#11: vnp4 - (π,ρ)30↑e12  = 0
 _EmbdConstr_vnp4e13#12: vnp4 - (π,ρ)31↑e13 - (π,ρ)32↑e13
                         - (π,ρ)33↑e13 - (π,ρ)34↑e13
                         - (π,ρ)35↑e13 - (π,ρ)36↑e13
                         - (π,ρ)37↑e13 - (π,ρ)38↑e13
                         - (π,ρ)39↑e13 - (π,ρ)40↑e13
                         - (π,ρ)41↑e13 - (π,ρ)42↑e13  = 0
 _EmbdConstr_vnp4e14#13: vnp4 - (π,ρ)43↑e14  = 0
 _EmbdConstr_vnp4e15#14: vnp4 - (π,ρ)44↑e15 - (π,ρ)45↑e15
                         - (π,ρ)46↑e15 - (π,ρ)47↑e15
                         - (π,ρ)48↑e15 - (π,ρ)49↑e15
                         - (π,ρ)50↑e15 - (π,ρ)51↑e15  = 0
 _EmbdConstr_vnp5e16#15: vnp5 - (π,ρ)52↑e16 - (π,ρ)53↑e16
                         - (π,ρ)54↑e16 - (π,ρ)55↑e16
                         - (π,ρ)56↑e16 - (π,ρ)57↑e16
                         - (π,ρ)58↑e16 - (π,ρ)59↑e16
                         - (π,ρ)60↑e16 - (π,ρ)61↑e16
                         - (π,ρ)62↑e16 - (π,ρ)63↑e16
                         - (π,ρ)64↑e16  = 0
 _EmbdConstr_vnp5e17#16: vnp5 - (π,ρ)65↑e17 - (π,ρ)66↑e17
                         - (π,ρ)67↑e17 - (π,ρ)68↑e17
                         - (π,ρ)69↑e17 - (π,ρ)70↑e17
                         - (π,ρ)71↑e17 - (π,ρ)72↑e17
                         - (π,ρ)73↑e17 - (π,ρ)74↑e17
                         - (π,ρ)75↑e17 - (π,ρ)76↑e17
                         - (π,ρ)77↑e17 - (π,ρ)78↑e17  = 0
 _EmbdConstr_vnp5e18#17: vnp5  = 0
 _EmbdConstr_vnp6e19#18: vnp6  = 0
 _EmbdConstr_vnp6e20#19: vnp6  = 0
 _EmbdConstr_vnp6e21#20: vnp6  = 0
 _EmbdConstr_vnp6e22#21: vnp6  = 0
 BwCapConstr_slink1#22:  4 (π,ρ)20↑e11 + 4 (π,ρ)21↑e11
                         + 4 (π,ρ)22↑e11 + 4 (π,ρ)23↑e11
                         + 4 (π,ρ)24↑e11 + 4 (π,ρ)25↑e11
                         + 4 (π,ρ)26↑e11 + 4 (π,ρ)27↑e11
                         + 4 (π,ρ)28↑e11 + 4 (π,ρ)29↑e11
                         <= 15
 BwCapConstr_slink2#23:  4 (π,ρ)18↑e11 + 4 (π,ρ)19↑e11
                         + 4 (π,ρ)20↑e11 + 4 (π,ρ)21↑e11
                         + 4 (π,ρ)22↑e11 + 4 (π,ρ)23↑e11
                         + 4 (π,ρ)24↑e11 + 4 (π,ρ)25↑e11
                         + 4 (π,ρ)26↑e11 + 4 (π,ρ)28↑e11
                         + 4 (π,ρ)29↑e11 + (π,ρ)47↑e15
                         <= 15
 BwCapConstr_slink4#24:  (π,ρ)2↑e6 <= 20
 BwCapConstr_slink5#25:  4 (π,ρ)27↑e11 + 4 (π,ρ)28↑e11
                         + 4 (π,ρ)29↑e11 <= 20
 BwCapConstr_slink6#26:  2 (π,ρ)4↑e9 + 2 (π,ρ)19↑e11
                         + 4 (π,ρ)20↑e11 + 4 (π,ρ)21↑e11
                         + 4 (π,ρ)22↑e11 + 4 (π,ρ)23↑e11
                         + (π,ρ)48↑e15 + (π,ρ)58↑e16
                         + 3 (π,ρ)77↑e17 <= 8
 BwCapConstr_slink7#27:  2 (π,ρ)16↑e9 + (π,ρ)21↑e11
                         + 4 (π,ρ)24↑e11 + 4 (π,ρ)25↑e11
                         + 4 (π,ρ)26↑e11 + 4 (π,ρ)27↑e11
                         + (π,ρ)28↑e11 + 2 (π,ρ)29↑e11
                         + 4 (π,ρ)33↑e13 + 4 (π,ρ)37↑e13
                         + 4 (π,ρ)38↑e13 + 4 (π,ρ)39↑e13
                         + 4 (π,ρ)42↑e13 + (π,ρ)45↑e15
                         + (π,ρ)47↑e15 + (π,ρ)50↑e15
                         <= 18
 BwCapConstr_slink8#28:  5 (π,ρ)16↑e9 + 4 (π,ρ)18↑e11
                         + 4 (π,ρ)19↑e11 + 4 (π,ρ)20↑e11
                         + 4 (π,ρ)27↑e11 + 4 (π,ρ)28↑e11
                         + 4 (π,ρ)29↑e11 + 4 (π,ρ)33↑e13
                         + 4 (π,ρ)37↑e13 + 4 (π,ρ)38↑e13
                         + 4 (π,ρ)39↑e13 + 4 (π,ρ)42↑e13
                         <= 17
 BwCapConstr_slink9#29:  5 (π,ρ)3↑e9 + 5 (π,ρ)4↑e9
                         + 5 (π,ρ)5↑e9 + 5 (π,ρ)6↑e9
                         + 5 (π,ρ)7↑e9 + 5 (π,ρ)8↑e9
                         + 5 (π,ρ)9↑e9 + 5 (π,ρ)10↑e9
                         + 5 (π,ρ)11↑e9 + 5 (π,ρ)13↑e9
                         + 5 (π,ρ)15↑e9 + 4 (π,ρ)18↑e11
                         + 4 (π,ρ)19↑e11 + 4 (π,ρ)20↑e11
                         + 4 (π,ρ)21↑e11 + 4 (π,ρ)22↑e11
                         + 4 (π,ρ)23↑e11 + 4 (π,ρ)24↑e11
                         + 4 (π,ρ)25↑e11 + 4 (π,ρ)26↑e11
                         + 4 (π,ρ)27↑e11 + 4 (π,ρ)31↑e13
                         + 4 (π,ρ)32↑e13 + 4 (π,ρ)34↑e13
                         + 4 (π,ρ)35↑e13 + 4 (π,ρ)36↑e13
                         + (π,ρ)44↑e15 + (π,ρ)46↑e15
                         + (π,ρ)49↑e15 + (π,ρ)51↑e15
                         + (π,ρ)57↑e16 + (π,ρ)59↑e16
                         + (π,ρ)61↑e16 + (π,ρ)62↑e16
                         + 4 (π,ρ)66↑e17 + 4 (π,ρ)68↑e17
                         + 4 (π,ρ)69↑e17 + 4 (π,ρ)70↑e17
                         <= 12
 BwCapConstr_slink10#30: (π,ρ)2↑e6 <= 20
 BwCapConstr_slink12#31: 5 (π,ρ)6↑e9 + 5 (π,ρ)7↑e9
                         + 5 (π,ρ)8↑e9 + 5 (π,ρ)9↑e9
                         + 2 (π,ρ)10↑e9 + 4 (π,ρ)21↑e11
                         + 4 (π,ρ)28↑e11 + 4 (π,ρ)31↑e13
                         + 4 (π,ρ)32↑e13 + 4 (π,ρ)33↑e13
                         + 4 (π,ρ)34↑e13 + 4 (π,ρ)40↑e13
                         + 4 (π,ρ)41↑e13 + (π,ρ)44↑e15
                         + (π,ρ)45↑e15 + (π,ρ)46↑e15
                         + (π,ρ)47↑e15 + (π,ρ)48↑e15
                         + (π,ρ)49↑e15 + (π,ρ)50↑e15
                         + (π,ρ)51↑e15 + 4 (π,ρ)65↑e17
                         + 4 (π,ρ)67↑e17 + 4 (π,ρ)75↑e17
                         + 4 (π,ρ)76↑e17 + 4 (π,ρ)77↑e17
                         + 4 (π,ρ)78↑e17 <= 4
 BwCapConstr_slink13#32: 2 (π,ρ)3↑e9 + 4 (π,ρ)5↑e9
                         + 3 (π,ρ)11↑e9 + (π,ρ)13↑e9
                         + 2 (π,ρ)15↑e9 + 2 (π,ρ)23↑e11
                         + (π,ρ)26↑e11 + 4 (π,ρ)36↑e13
                         + 4 (π,ρ)40↑e13 + 4 (π,ρ)41↑e13
                         + 4 (π,ρ)42↑e13 + (π,ρ)54↑e16
                         + (π,ρ)55↑e16 + (π,ρ)57↑e16
                         + (π,ρ)59↑e16 + (π,ρ)61↑e16
                         + (π,ρ)62↑e16 + (π,ρ)64↑e16
                         + 4 (π,ρ)65↑e17 + 4 (π,ρ)66↑e17
                         + 4 (π,ρ)67↑e17 + 4 (π,ρ)68↑e17
                         + 4 (π,ρ)69↑e17 + 4 (π,ρ)70↑e17
                         + 4 (π,ρ)75↑e17 + 4 (π,ρ)76↑e17
                         + 4 (π,ρ)77↑e17 + 4 (π,ρ)78↑e17
                         <= 7
 BwCapConstr_slink14#33: (π,ρ)24↑e11 + 2 (π,ρ)25↑e11
                         + (π,ρ)53↑e16 + (π,ρ)58↑e16
                         + (π,ρ)60↑e16 + (π,ρ)61↑e16
                         + (π,ρ)62↑e16 <= 7
 BwCapConstr_slink15#34: (π,ρ)26↑e11 + (π,ρ)48↑e15
                         + (π,ρ)60↑e16 + (π,ρ)61↑e16
                         + (π,ρ)62↑e16 + 4 (π,ρ)77↑e17
                         <= 13
 BwCapConstr_slink16#35: 3 (π,ρ)4↑e9 + 5 (π,ρ)7↑e9
                         + 3 (π,ρ)16↑e9 + (π,ρ)52↑e16
                         + (π,ρ)56↑e16 + (π,ρ)57↑e16
                         + (π,ρ)58↑e16 + (π,ρ)59↑e16
                         + (π,ρ)63↑e16 + (π,ρ)64↑e16
                         + 4 (π,ρ)71↑e17 + 4 (π,ρ)72↑e17
                         + 4 (π,ρ)73↑e17 + 4 (π,ρ)74↑e17
                         + 4 (π,ρ)76↑e17 + 4 (π,ρ)77↑e17
                         <= 15
 BwCapConstr_slink17#36: (π,ρ)2↑e6 <= 20
 BwCapConstr_slink18#37: 5 (π,ρ)7↑e9 + 5 (π,ρ)14↑e9
                         + 5 (π,ρ)15↑e9 + 5 (π,ρ)16↑e9
                         + (π,ρ)56↑e16 + (π,ρ)57↑e16
                         + (π,ρ)58↑e16 + (π,ρ)59↑e16
                         + (π,ρ)60↑e16 + (π,ρ)61↑e16
                         + (π,ρ)62↑e16 + 4 (π,ρ)76↑e17
                         <= 17
 BwCapConstr_slink19#38: 5 (π,ρ)3↑e9 + 5 (π,ρ)4↑e9
                         + 5 (π,ρ)5↑e9 + 5 (π,ρ)6↑e9
                         + 5 (π,ρ)7↑e9 + 5 (π,ρ)8↑e9
                         + 5 (π,ρ)9↑e9 + 5 (π,ρ)14↑e9
                         + 5 (π,ρ)15↑e9 + 5 (π,ρ)16↑e9
                         + 5 (π,ρ)17↑e9 + (π,ρ)52↑e16
                         + (π,ρ)53↑e16 + (π,ρ)54↑e16
                         + (π,ρ)55↑e16 + 4 (π,ρ)76↑e17
                         <= 17
 BwCapConstr_slink20#39: 2 (π,ρ)7↑e9 + 2 (π,ρ)14↑e9
                         + 4 (π,ρ)22↑e11 + 4 (π,ρ)23↑e11
                         + 4 (π,ρ)29↑e11 + 4 (π,ρ)40↑e13
                         + 4 (π,ρ)41↑e13 + 4 (π,ρ)42↑e13
                         + (π,ρ)52↑e16 + (π,ρ)53↑e16
                         + (π,ρ)54↑e16 + (π,ρ)55↑e16
                         + (π,ρ)56↑e16 + (π,ρ)60↑e16
                         + (π,ρ)63↑e16 + 4 (π,ρ)65↑e17
                         + 4 (π,ρ)66↑e17 + 4 (π,ρ)67↑e17
                         + 4 (π,ρ)68↑e17 + 4 (π,ρ)70↑e17
                         + 4 (π,ρ)75↑e17 + 4 (π,ρ)78↑e17
                         <= 15
 BwCapConstr_slink21#40: 5 (π,ρ)6↑e9 + 5 (π,ρ)10↑e9
                         + 5 (π,ρ)11↑e9 + 5 (π,ρ)12↑e9
                         + 5 (π,ρ)13↑e9 + 5 (π,ρ)17↑e9
                         + (π,ρ)44↑e15 + (π,ρ)45↑e15
                         + (π,ρ)46↑e15 + (π,ρ)47↑e15
                         <= 18
 BwCapConstr_slink22#41: 5 (π,ρ)3↑e9 + 5 (π,ρ)4↑e9
                         + 5 (π,ρ)5↑e9 + 5 (π,ρ)6↑e9
                         + 5 (π,ρ)7↑e9 + 5 (π,ρ)10↑e9
                         + 5 (π,ρ)11↑e9 + 5 (π,ρ)12↑e9
                         + 5 (π,ρ)13↑e9 + 5 (π,ρ)14↑e9
                         + 5 (π,ρ)17↑e9 + 4 (π,ρ)21↑e11
                         + 4 (π,ρ)22↑e11 + 4 (π,ρ)23↑e11
                         + 4 (π,ρ)24↑e11 + 4 (π,ρ)25↑e11
                         + 4 (π,ρ)26↑e11 + 4 (π,ρ)28↑e11
                         + 4 (π,ρ)29↑e11 + 4 (π,ρ)35↑e13
                         + 4 (π,ρ)40↑e13 + 4 (π,ρ)41↑e13
                         + (π,ρ)65↑e17 + 4 (π,ρ)74↑e17
                         + 4 (π,ρ)75↑e17 + 4 (π,ρ)76↑e17
                         + 4 (π,ρ)78↑e17 <= 17
 BwCapConstr_slink23#42: 5 (π,ρ)14↑e9 + 5 (π,ρ)15↑e9
                         + 5 (π,ρ)16↑e9 + 5 (π,ρ)17↑e9
                         + 4 (π,ρ)31↑e13 + 4 (π,ρ)32↑e13
                         + 4 (π,ρ)33↑e13 + 4 (π,ρ)34↑e13
                         + 4 (π,ρ)40↑e13 + 4 (π,ρ)41↑e13
                         + 4 (π,ρ)42↑e13 + (π,ρ)48↑e15
                         + (π,ρ)49↑e15 + (π,ρ)50↑e15
                         + (π,ρ)51↑e15 + 4 (π,ρ)65↑e17
                         + 4 (π,ρ)66↑e17 + 4 (π,ρ)67↑e17
                         + 4 (π,ρ)68↑e17 + 4 (π,ρ)75↑e17
                         + 4 (π,ρ)76↑e17 + 4 (π,ρ)77↑e17
                         + 4 (π,ρ)78↑e17 <= 12
 BwCapConstr_slink24#43: 5 (π,ρ)14↑e9 + 5 (π,ρ)15↑e9
                         + 5 (π,ρ)16↑e9 + 5 (π,ρ)17↑e9
                         + 4 (π,ρ)31↑e13 + 2 (π,ρ)33↑e13
                         + 4 (π,ρ)35↑e13 + 4 (π,ρ)36↑e13
                         + 4 (π,ρ)37↑e13 + 4 (π,ρ)38↑e13
                         + 4 (π,ρ)39↑e13 + (π,ρ)40↑e13
                         + 2 (π,ρ)42↑e13 + 4 (π,ρ)69↑e17
                         + 4 (π,ρ)70↑e17 + 4 (π,ρ)75↑e17
                         + (π,ρ)76↑e17 + (π,ρ)77↑e17
                         <= 20
 BwCapConstr_slink25#44: 4 (π,ρ)1↑e4 + 5 (π,ρ)12↑e9
                         + 4 (π,ρ)38↑e13 + 4 (π,ρ)69↑e17
                         + (π,ρ)72↑e17 + 4 (π,ρ)73↑e17
                         + (π,ρ)74↑e17 <= 12
 BwCapConstr_slink26#45: (π,ρ)2↑e6 + 5 (π,ρ)8↑e9
                         + 5 (π,ρ)9↑e9 + 4 (π,ρ)32↑e13
                         + 4 (π,ρ)34↑e13 + 4 (π,ρ)39↑e13
                         + (π,ρ)46↑e15 + (π,ρ)51↑e15
                         + 4 (π,ρ)67↑e17 <= 16
 BwCapConstr_slink27#46: 3 (π,ρ)0↑e2 + 5 (π,ρ)8↑e9
                         + 4 (π,ρ)41↑e13 + (π,ρ)67↑e17
                         + 4 (π,ρ)68↑e17 + 4 (π,ρ)78↑e17
                         <= 20
 BwCapConstr_slink28#47: 5 (π,ρ)12↑e9 + 4 (π,ρ)30↑e12
                         + 4 (π,ρ)32↑e13 + 4 (π,ρ)34↑e13
                         + (π,ρ)38↑e13 + (π,ρ)41↑e13
                         + (π,ρ)73↑e17 + 4 (π,ρ)78↑e17
                         <= 12
 BwCapConstr_slink29#48: 4 (π,ρ)30↑e12 + (π,ρ)43↑e14
                         + (π,ρ)48↑e15 + (π,ρ)49↑e15
                         + (π,ρ)50↑e15 + (π,ρ)51↑e15
                         <= 20
 BwCapConstr_slink30#49: 4 (π,ρ)71↑e17 + 4 (π,ρ)72↑e17
                         + 4 (π,ρ)73↑e17 + 4 (π,ρ)74↑e17
                         <= 20
 BwCapConstr_slink31#50: 5 (π,ρ)8↑e9 + (π,ρ)9↑e9
                         + (π,ρ)44↑e15 + (π,ρ)45↑e15
                         + (π,ρ)46↑e15 + (π,ρ)47↑e15
                         <= 20
 BwCapConstr_slink32#51: 5 (π,ρ)6↑e9 + (π,ρ)8↑e9
                         + (π,ρ)9↑e9 + 5 (π,ρ)10↑e9
                         + 5 (π,ρ)11↑e9 + 5 (π,ρ)12↑e9
                         + 5 (π,ρ)13↑e9 + 5 (π,ρ)17↑e9
                         + (π,ρ)63↑e16 + (π,ρ)64↑e16
                         <= 20
 BwCapConstr_slink33#52: (π,ρ)63↑e16 + (π,ρ)64↑e16
                         + 4 (π,ρ)71↑e17 + 4 (π,ρ)72↑e17
                         + 4 (π,ρ)73↑e17 + 4 (π,ρ)74↑e17
                         <= 18
 BwCapConstr_slink34#53: <= 16
 BwCapConstr_slink36#54: <= 16
 BwCapConstr_slink37#55: 5 (π,ρ)8↑e9 + (π,ρ)46↑e15
                         + (π,ρ)51↑e15 <= 20
 BwCapConstr_slink38#56: 4 (π,ρ)1↑e4 <= 20
 BwCapConstr_slink39#57: (π,ρ)43↑e14 <= 20
 BwCapConstr_slink40#58: 5 (π,ρ)9↑e9 + (π,ρ)44↑e15
                         + (π,ρ)49↑e15 <= 16
 BwCapConstr_slink42#59: (π,ρ)2↑e6 + 5 (π,ρ)9↑e9
                         + 4 (π,ρ)34↑e13 + (π,ρ)45↑e15
                         + (π,ρ)50↑e15 <= 16
 BwCapConstr_slink43#60: (π,ρ)43↑e14 <= 20
 BwCapConstr_slink44#61: (π,ρ)2↑e6 <= 20
Bounds
 0 <= vnp1 <= 1
 0 <= (π,ρ)0↑e2 <= 1
 0 <= (π,ρ)1↑e4 <= 1
 0 <= vnp2 <= 1
 0 <= (π,ρ)2↑e6 <= 1
 0 <= vnp3 <= 1
 0 <= (π,ρ)3↑e9 <= 1
 0 <= (π,ρ)4↑e9 <= 1
 0 <= (π,ρ)5↑e9 <= 1
 0 <= (π,ρ)6↑e9 <= 1
 0 <= (π,ρ)7↑e9 <= 1
 0 <= (π,ρ)8↑e9 <= 1
 0 <= (π,ρ)9↑e9 <= 1
 0 <= (π,ρ)10↑e9 <= 1
 0 <= (π,ρ)11↑e9 <= 1
 0 <= (π,ρ)12↑e9 <= 1
 0 <= (π,ρ)13↑e9 <= 1
 0 <= (π,ρ)14↑e9 <= 1
 0 <= (π,ρ)15↑e9 <= 1
 0 <= (π,ρ)16↑e9 <= 1
 0 <= (π,ρ)17↑e9 <= 1
 0 <= (π,ρ)18↑e11 <= 1
 0 <= (π,ρ)19↑e11 <= 1
 0 <= (π,ρ)20↑e11 <= 1
 0 <= (π,ρ)21↑e11 <= 1
 0 <= (π,ρ)22↑e11 <= 1
 0 <= (π,ρ)23↑e11 <= 1
 0 <= (π,ρ)24↑e11 <= 1
 0 <= (π,ρ)25↑e11 <= 1
 0 <= (π,ρ)26↑e11 <= 1
 0 <= (π,ρ)27↑e11 <= 1
 0 <= (π,ρ)28↑e11 <= 1
 0 <= (π,ρ)29↑e11 <= 1
 0 <= vnp4 <= 1
 0 <= (π,ρ)30↑e12 <= 1
 0 <= (π,ρ)31↑e13 <= 1
 0 <= (π,ρ)32↑e13 <= 1
 0 <= (π,ρ)33↑e13 <= 1
 0 <= (π,ρ)34↑e13 <= 1
 0 <= (π,ρ)35↑e13 <= 1
 0 <= (π,ρ)36↑e13 <= 1
 0 <= (π,ρ)37↑e13 <= 1
 0 <= (π,ρ)38↑e13 <= 1
 0 <= (π,ρ)39↑e13 <= 1
 0 <= (π,ρ)40↑e13 <= 1
 0 <= (π,ρ)41↑e13 <= 1
 0 <= (π,ρ)42↑e13 <= 1
 0 <= (π,ρ)43↑e14 <= 1
 0 <= (π,ρ)44↑e15 <= 1
 0 <= (π,ρ)45↑e15 <= 1
 0 <= (π,ρ)46↑e15 <= 1
 0 <= (π,ρ)47↑e15 <= 1
 0 <= (π,ρ)48↑e15 <= 1
 0 <= (π,ρ)49↑e15 <= 1
 0 <= (π,ρ)50↑e15 <= 1
 0 <= (π,ρ)51↑e15 <= 1
 0 <= vnp5 <= 1
 0 <= (π,ρ)52↑e16 <= 1
 0 <= (π,ρ)53↑e16 <= 1
 0 <= (π,ρ)54↑e16 <= 1
 0 <= (π,ρ)55↑e16 <= 1
 0 <= (π,ρ)56↑e16 <= 1
 0 <= (π,ρ)57↑e16 <= 1
 0 <= (π,ρ)58↑e16 <= 1
 0 <= (π,ρ)59↑e16 <= 1
 0 <= (π,ρ)60↑e16 <= 1
 0 <= (π,ρ)61↑e16 <= 1
 0 <= (π,ρ)62↑e16 <= 1
 0 <= (π,ρ)63↑e16 <= 1
 0 <= (π,ρ)64↑e16 <= 1
 0 <= (π,ρ)65↑e17 <= 1
 0 <= (π,ρ)66↑e17 <= 1
 0 <= (π,ρ)67↑e17 <= 1
 0 <= (π,ρ)68↑e17 <= 1
 0 <= (π,ρ)69↑e17 <= 1
 0 <= (π,ρ)70↑e17 <= 1
 0 <= (π,ρ)71↑e17 <= 1
 0 <= (π,ρ)72↑e17 <= 1
 0 <= (π,ρ)73↑e17 <= 1
 0 <= (π,ρ)74↑e17 <= 1
 0 <= (π,ρ)75↑e17 <= 1
 0 <= (π,ρ)76↑e17 <= 1
 0 <= (π,ρ)77↑e17 <= 1
 0 <= (π,ρ)78↑e17 <= 1
 0 <= vnp6 <= 1
Binaries
 vnp1  (π,ρ)0↑e2  (π,ρ)1↑e4  vnp2  (π,ρ)2↑e6 
 vnp3  (π,ρ)3↑e9  (π,ρ)4↑e9  (π,ρ)5↑e9 
 (π,ρ)6↑e9  (π,ρ)7↑e9  (π,ρ)8↑e9 
 (π,ρ)9↑e9  (π,ρ)10↑e9  (π,ρ)11↑e9 
 (π,ρ)12↑e9  (π,ρ)13↑e9  (π,ρ)14↑e9 
 (π,ρ)15↑e9  (π,ρ)16↑e9  (π,ρ)17↑e9 
 (π,ρ)18↑e11  (π,ρ)19↑e11  (π,ρ)20↑e11 
 (π,ρ)21↑e11  (π,ρ)22↑e11  (π,ρ)23↑e11 
 (π,ρ)24↑e11  (π,ρ)25↑e11  (π,ρ)26↑e11 
 (π,ρ)27↑e11  (π,ρ)28↑e11  (π,ρ)29↑e11  vnp4 
 (π,ρ)30↑e12  (π,ρ)31↑e13  (π,ρ)32↑e13 
 (π,ρ)33↑e13  (π,ρ)34↑e13  (π,ρ)35↑e13 
 (π,ρ)36↑e13  (π,ρ)37↑e13  (π,ρ)38↑e13 
 (π,ρ)39↑e13  (π,ρ)40↑e13  (π,ρ)41↑e13 
 (π,ρ)42↑e13  (π,ρ)43↑e14  (π,ρ)44↑e15 
 (π,ρ)45↑e15  (π,ρ)46↑e15  (π,ρ)47↑e15 
 (π,ρ)48↑e15  (π,ρ)49↑e15  (π,ρ)50↑e15 
 (π,ρ)51↑e15  vnp5  (π,ρ)52↑e16  (π,ρ)53↑e16 
 (π,ρ)54↑e16  (π,ρ)55↑e16  (π,ρ)56↑e16 
 (π,ρ)57↑e16  (π,ρ)58↑e16  (π,ρ)59↑e16 
 (π,ρ)60↑e16  (π,ρ)61↑e16  (π,ρ)62↑e16 
 (π,ρ)63↑e16  (π,ρ)64↑e16  (π,ρ)65↑e17 
 (π,ρ)66↑e17  (π,ρ)67↑e17  (π,ρ)68↑e17 
 (π,ρ)69↑e17  (π,ρ)70↑e17  (π,ρ)71↑e17 
 (π,ρ)72↑e17  (π,ρ)73↑e17  (π,ρ)74↑e17 
 (π,ρ)75↑e17  (π,ρ)76↑e17  (π,ρ)77↑e17 
 (π,ρ)78↑e17  vnp6 
End
